p cnf 554 1512
a 1 2 3 4 5 6 7 8 9 10 11 12 13 0
e 14 15 16 17 18 19 20 21 22 23 24 25 26 0
a 27 28 29 30 31 32 33 34 35 36 37 38 39 0
e 40 41 42 43 44 45 46 47 48 49 50 51 52 0
a 53 54 55 56 57 58 59 60 61 62 63 64 65 0
e 66 67 68 69 70 71 72 73 74 75 76 77 78 0
a 79 80 81 82 83 84 85 86 87 88 89 90 91 0
e 92 93 94 95 96 97 98 99 100 101 102 103 104 0
a 105 106 107 108 109 110 111 112 113 114 115 116 117 0
e 118 119 120 121 122 123 124 125 126 127 128 129 130 0
a 131 132 133 134 135 136 137 138 139 140 141 142 143 0
e 144 145 146 147 148 149 150 151 152 153 154 155 156 188 195 218 459 290 320 461 167 205 177 530 201 256 381 473 204 417 427 202 267 395 317 376 448 315 343 402 454 170 197 526 230 269 501 505 191 303 335 388 507 541 446 323 478 228 515 266 264 342 513 520 180 524 277 294 374 175 250 407 321 337 469 362 307 451 476 238 273 274 440 198 214 220 532 551 285 373 500 529 316 441 523 206 231 433 531 234 540 418 481 216 265 380 410 235 389 421 435 164 227 272 346 428 466 173 278 261 548 391 490 495 488 527 186 209 429 413 509 550 190 268 348 159 386 445 245 249 449 212 295 356 499 341 444 547 172 213 279 328 291 309 168 253 398 539 465 485 542 229 339 405 396 450 226 318 351 185 434 334 517 203 372 233 393 545 263 430 475 498 200 211 340 236 408 535 447 503 510 165 492 262 496 260 400 464 338 160 493 248 326 406 187 347 370 397 232 258 322 199 553 252 491 289 378 301 344 166 215 247 471 438 302 369 282 453 504 368 382 502 528 333 357 276 431 442 332 375 456 331 271 163 246 452 554 158 257 360 385 436 329 423 420 409 474 208 319 377 219 419 305 508 169 240 225 330 371 426 489 497 176 383 484 390 415 437 210 412 422 443 281 358 367 399 403 182 313 336 522 251 296 518 171 237 223 293 432 394 411 224 299 365 287 458 467 525 546 196 178 297 183 350 306 192 217 288 379 387 239 361 506 537 270 401 462 468 544 439 207 286 480 455 312 283 384 416 325 363 460 157 354 494 514 324 349 511 533 308 310 359 538 284 477 483 512 174 189 243 280 327 298 314 521 242 254 292 300 404 463 259 486 179 482 516 194 241 255 479 355 424 161 457 487 552 345 364 534 366 425 549 162 184 222 352 353 392 543 193 221 470 472 519 536 181 244 311 275 304 414 0
162 0
163 0
164 0
157 0
158 0
159 0
160 0
161 0
165 0
-144 166 0
144 -166 0
-145 167 0
145 -167 0
-146 168 0
146 -168 0
-147 169 0
147 -169 0
-148 170 0
148 -170 0
-149 171 0
149 -171 0
-150 172 0
150 -172 0
-151 173 0
151 -173 0
-152 174 0
152 -174 0
-153 175 0
153 -175 0
-154 176 0
154 -176 0
-155 177 0
155 -177 0
-156 178 0
156 -178 0
-14 40 0
-15 41 0
-16 42 0
-17 43 0
-18 44 0
-19 45 0
-20 46 0
-21 47 0
-22 48 0
-23 49 0
-24 50 0
-25 51 0
-26 52 0
-40 66 0
-41 67 0
-42 68 0
-43 69 0
-44 70 0
-45 71 0
-46 72 0
-47 73 0
-48 74 0
-49 75 0
-50 76 0
-51 77 0
-52 78 0
-66 92 0
-67 93 0
-68 94 0
-69 95 0
-70 96 0
-71 97 0
-72 98 0
-73 99 0
-74 100 0
-75 101 0
-76 102 0
-77 103 0
-78 104 0
-92 118 0
-93 119 0
-94 120 0
-95 121 0
-96 122 0
-97 123 0
-98 124 0
-99 125 0
-100 126 0
-101 127 0
-102 128 0
-103 129 0
-104 130 0
-118 144 0
-119 145 0
-120 146 0
-121 147 0
-122 148 0
-123 149 0
-124 150 0
-125 151 0
-126 152 0
-127 153 0
-128 154 0
-129 155 0
-130 156 0
179 -14 0
-179 14 0
-179 180 0
180 -15 0
179 -180 15 0
-179 181 -15 0
-181 15 0
179 -181 0
-180 182 0
182 -16 0
180 -182 16 0
-181 183 0
-180 183 -16 0
181 -183 16 0
180 -183 0
-182 184 0
184 -17 0
182 -184 17 0
-183 185 0
-182 185 -17 0
183 -185 17 0
182 -185 0
-184 186 0
186 -18 0
184 -186 18 0
-185 187 0
-184 187 -18 0
185 -187 18 0
184 -187 0
-186 188 0
188 -19 0
186 -188 19 0
-187 189 0
-186 189 -19 0
187 -189 19 0
186 -189 0
-188 190 0
190 -20 0
188 -190 20 0
-189 191 0
-188 191 -20 0
189 -191 20 0
188 -191 0
-190 192 0
192 -21 0
190 -192 21 0
-191 193 0
-190 193 -21 0
191 -193 21 0
190 -193 0
-192 194 0
194 -22 0
192 -194 22 0
-193 195 0
-192 195 -22 0
193 -195 22 0
192 -195 0
-194 196 0
196 -23 0
194 -196 23 0
-195 197 0
-194 197 -23 0
195 -197 23 0
194 -197 0
-196 198 0
198 -24 0
196 -198 24 0
-197 199 0
-196 199 -24 0
197 -199 24 0
196 -199 0
-198 200 0
200 -25 0
198 -200 25 0
-199 201 0
-198 201 -25 0
199 -201 25 0
198 -201 0
-200 202 0
202 -26 0
200 -202 26 0
-201 203 0
-200 203 -26 0
201 -203 26 0
200 -203 0
-204 202 0
-204 -203 0
205 14 -40 0
-205 -14 0
-205 40 0
-205 206 0
206 15 -41 0
205 -206 -15 0
205 -206 41 0
-205 207 15 -41 0
-207 -15 0
-207 41 0
205 -207 0
-206 208 0
208 16 -42 0
206 -208 -16 0
206 -208 42 0
-207 209 0
-206 209 16 -42 0
207 -209 -16 0
207 -209 42 0
206 -209 0
-208 210 0
210 17 -43 0
208 -210 -17 0
208 -210 43 0
-209 211 0
-208 211 17 -43 0
209 -211 -17 0
209 -211 43 0
208 -211 0
-210 212 0
212 18 -44 0
210 -212 -18 0
210 -212 44 0
-211 213 0
-210 213 18 -44 0
211 -213 -18 0
211 -213 44 0
210 -213 0
-212 214 0
214 19 -45 0
212 -214 -19 0
212 -214 45 0
-213 215 0
-212 215 19 -45 0
213 -215 -19 0
213 -215 45 0
212 -215 0
-214 216 0
216 20 -46 0
214 -216 -20 0
214 -216 46 0
-215 217 0
-214 217 20 -46 0
215 -217 -20 0
215 -217 46 0
214 -217 0
-216 218 0
218 21 -47 0
216 -218 -21 0
216 -218 47 0
-217 219 0
-216 219 21 -47 0
217 -219 -21 0
217 -219 47 0
216 -219 0
-218 220 0
220 22 -48 0
218 -220 -22 0
218 -220 48 0
-219 221 0
-218 221 22 -48 0
219 -221 -22 0
219 -221 48 0
218 -221 0
-220 222 0
222 23 -49 0
220 -222 -23 0
220 -222 49 0
-221 223 0
-220 223 23 -49 0
221 -223 -23 0
221 -223 49 0
220 -223 0
-222 224 0
224 24 -50 0
222 -224 -24 0
222 -224 50 0
-223 225 0
-222 225 24 -50 0
223 -225 -24 0
223 -225 50 0
222 -225 0
-224 226 0
226 25 -51 0
224 -226 -25 0
224 -226 51 0
-225 227 0
-224 227 25 -51 0
225 -227 -25 0
225 -227 51 0
224 -227 0
-226 228 0
228 26 -52 0
226 -228 -26 0
226 -228 52 0
-227 229 0
-226 229 26 -52 0
227 -229 -26 0
227 -229 52 0
226 -229 0
-204 228 0
-204 -229 0
230 40 -66 0
-230 -40 0
-230 66 0
-230 231 0
231 41 -67 0
230 -231 -41 0
230 -231 67 0
-230 232 41 -67 0
-232 -41 0
-232 67 0
230 -232 0
-231 233 0
233 42 -68 0
231 -233 -42 0
231 -233 68 0
-232 234 0
-231 234 42 -68 0
232 -234 -42 0
232 -234 68 0
231 -234 0
-233 235 0
235 43 -69 0
233 -235 -43 0
233 -235 69 0
-234 236 0
-233 236 43 -69 0
234 -236 -43 0
234 -236 69 0
233 -236 0
-235 237 0
237 44 -70 0
235 -237 -44 0
235 -237 70 0
-236 238 0
-235 238 44 -70 0
236 -238 -44 0
236 -238 70 0
235 -238 0
-237 239 0
239 45 -71 0
237 -239 -45 0
237 -239 71 0
-238 240 0
-237 240 45 -71 0
238 -240 -45 0
238 -240 71 0
237 -240 0
-239 241 0
241 46 -72 0
239 -241 -46 0
239 -241 72 0
-240 242 0
-239 242 46 -72 0
240 -242 -46 0
240 -242 72 0
239 -242 0
-241 243 0
243 47 -73 0
241 -243 -47 0
241 -243 73 0
-242 244 0
-241 244 47 -73 0
242 -244 -47 0
242 -244 73 0
241 -244 0
-243 245 0
245 48 -74 0
243 -245 -48 0
243 -245 74 0
-244 246 0
-243 246 48 -74 0
244 -246 -48 0
244 -246 74 0
243 -246 0
-245 247 0
247 49 -75 0
245 -247 -49 0
245 -247 75 0
-246 248 0
-245 248 49 -75 0
246 -248 -49 0
246 -248 75 0
245 -248 0
-247 249 0
249 50 -76 0
247 -249 -50 0
247 -249 76 0
-248 250 0
-247 250 50 -76 0
248 -250 -50 0
248 -250 76 0
247 -250 0
-249 251 0
251 51 -77 0
249 -251 -51 0
249 -251 77 0
-250 252 0
-249 252 51 -77 0
250 -252 -51 0
250 -252 77 0
249 -252 0
-251 253 0
253 52 -78 0
251 -253 -52 0
251 -253 78 0
-252 254 0
-251 254 52 -78 0
252 -254 -52 0
252 -254 78 0
251 -254 0
-204 253 0
-204 -254 0
255 66 -92 0
-255 -66 0
-255 92 0
-255 256 0
256 67 -93 0
255 -256 -67 0
255 -256 93 0
-255 257 67 -93 0
-257 -67 0
-257 93 0
255 -257 0
-256 258 0
258 68 -94 0
256 -258 -68 0
256 -258 94 0
-257 259 0
-256 259 68 -94 0
257 -259 -68 0
257 -259 94 0
256 -259 0
-258 260 0
260 69 -95 0
258 -260 -69 0
258 -260 95 0
-259 261 0
-258 261 69 -95 0
259 -261 -69 0
259 -261 95 0
258 -261 0
-260 262 0
262 70 -96 0
260 -262 -70 0
260 -262 96 0
-261 263 0
-260 263 70 -96 0
261 -263 -70 0
261 -263 96 0
260 -263 0
-262 264 0
264 71 -97 0
262 -264 -71 0
262 -264 97 0
-263 265 0
-262 265 71 -97 0
263 -265 -71 0
263 -265 97 0
262 -265 0
-264 266 0
266 72 -98 0
264 -266 -72 0
264 -266 98 0
-265 267 0
-264 267 72 -98 0
265 -267 -72 0
265 -267 98 0
264 -267 0
-266 268 0
268 73 -99 0
266 -268 -73 0
266 -268 99 0
-267 269 0
-266 269 73 -99 0
267 -269 -73 0
267 -269 99 0
266 -269 0
-268 270 0
270 74 -100 0
268 -270 -74 0
268 -270 100 0
-269 271 0
-268 271 74 -100 0
269 -271 -74 0
269 -271 100 0
268 -271 0
-270 272 0
272 75 -101 0
270 -272 -75 0
270 -272 101 0
-271 273 0
-270 273 75 -101 0
271 -273 -75 0
271 -273 101 0
270 -273 0
-272 274 0
274 76 -102 0
272 -274 -76 0
272 -274 102 0
-273 275 0
-272 275 76 -102 0
273 -275 -76 0
273 -275 102 0
272 -275 0
-274 276 0
276 77 -103 0
274 -276 -77 0
274 -276 103 0
-275 277 0
-274 277 77 -103 0
275 -277 -77 0
275 -277 103 0
274 -277 0
-276 278 0
278 78 -104 0
276 -278 -78 0
276 -278 104 0
-277 279 0
-276 279 78 -104 0
277 -279 -78 0
277 -279 104 0
276 -279 0
-204 278 0
-204 -279 0
280 92 -118 0
-280 -92 0
-280 118 0
-280 281 0
281 93 -119 0
280 -281 -93 0
280 -281 119 0
-280 282 93 -119 0
-282 -93 0
-282 119 0
280 -282 0
-281 283 0
283 94 -120 0
281 -283 -94 0
281 -283 120 0
-282 284 0
-281 284 94 -120 0
282 -284 -94 0
282 -284 120 0
281 -284 0
-283 285 0
285 95 -121 0
283 -285 -95 0
283 -285 121 0
-284 286 0
-283 286 95 -121 0
284 -286 -95 0
284 -286 121 0
283 -286 0
-285 287 0
287 96 -122 0
285 -287 -96 0
285 -287 122 0
-286 288 0
-285 288 96 -122 0
286 -288 -96 0
286 -288 122 0
285 -288 0
-287 289 0
289 97 -123 0
287 -289 -97 0
287 -289 123 0
-288 290 0
-287 290 97 -123 0
288 -290 -97 0
288 -290 123 0
287 -290 0
-289 291 0
291 98 -124 0
289 -291 -98 0
289 -291 124 0
-290 292 0
-289 292 98 -124 0
290 -292 -98 0
290 -292 124 0
289 -292 0
-291 293 0
293 99 -125 0
291 -293 -99 0
291 -293 125 0
-292 294 0
-291 294 99 -125 0
292 -294 -99 0
292 -294 125 0
291 -294 0
-293 295 0
295 100 -126 0
293 -295 -100 0
293 -295 126 0
-294 296 0
-293 296 100 -126 0
294 -296 -100 0
294 -296 126 0
293 -296 0
-295 297 0
297 101 -127 0
295 -297 -101 0
295 -297 127 0
-296 298 0
-295 298 101 -127 0
296 -298 -101 0
296 -298 127 0
295 -298 0
-297 299 0
299 102 -128 0
297 -299 -102 0
297 -299 128 0
-298 300 0
-297 300 102 -128 0
298 -300 -102 0
298 -300 128 0
297 -300 0
-299 301 0
301 103 -129 0
299 -301 -103 0
299 -301 129 0
-300 302 0
-299 302 103 -129 0
300 -302 -103 0
300 -302 129 0
299 -302 0
-301 303 0
303 104 -130 0
301 -303 -104 0
301 -303 130 0
-302 304 0
-301 304 104 -130 0
302 -304 -104 0
302 -304 130 0
301 -304 0
-204 303 0
-204 -304 0
305 118 -144 0
-305 -118 0
-305 144 0
-305 306 0
306 119 -145 0
305 -306 -119 0
305 -306 145 0
-305 307 119 -145 0
-307 -119 0
-307 145 0
305 -307 0
-306 308 0
308 120 -146 0
306 -308 -120 0
306 -308 146 0
-307 309 0
-306 309 120 -146 0
307 -309 -120 0
307 -309 146 0
306 -309 0
-308 310 0
310 121 -147 0
308 -310 -121 0
308 -310 147 0
-309 311 0
-308 311 121 -147 0
309 -311 -121 0
309 -311 147 0
308 -311 0
-310 312 0
312 122 -148 0
310 -312 -122 0
310 -312 148 0
-311 313 0
-310 313 122 -148 0
311 -313 -122 0
311 -313 148 0
310 -313 0
-312 314 0
314 123 -149 0
312 -314 -123 0
312 -314 149 0
-313 315 0
-312 315 123 -149 0
313 -315 -123 0
313 -315 149 0
312 -315 0
-314 316 0
316 124 -150 0
314 -316 -124 0
314 -316 150 0
-315 317 0
-314 317 124 -150 0
315 -317 -124 0
315 -317 150 0
314 -317 0
-316 318 0
318 125 -151 0
316 -318 -125 0
316 -318 151 0
-317 319 0
-316 319 125 -151 0
317 -319 -125 0
317 -319 151 0
316 -319 0
-318 320 0
320 126 -152 0
318 -320 -126 0
318 -320 152 0
-319 321 0
-318 321 126 -152 0
319 -321 -126 0
319 -321 152 0
318 -321 0
-320 322 0
322 127 -153 0
320 -322 -127 0
320 -322 153 0
-321 323 0
-320 323 127 -153 0
321 -323 -127 0
321 -323 153 0
320 -323 0
-322 324 0
324 128 -154 0
322 -324 -128 0
322 -324 154 0
-323 325 0
-322 325 128 -154 0
323 -325 -128 0
323 -325 154 0
322 -325 0
-324 326 0
326 129 -155 0
324 -326 -129 0
324 -326 155 0
-325 327 0
-324 327 129 -155 0
325 -327 -129 0
325 -327 155 0
324 -327 0
-326 328 0
328 130 -156 0
326 -328 -130 0
326 -328 156 0
-327 329 0
-326 329 130 -156 0
327 -329 -130 0
327 -329 156 0
326 -329 0
-204 328 0
-204 -329 0
-330 1 0
330 -331 2 0
-332 2 0
330 -332 0
331 -333 3 0
332 -334 3 0
331 -334 0
333 -335 4 0
334 -336 4 0
333 -336 0
335 -337 5 0
336 -338 5 0
335 -338 0
337 -339 6 0
338 -340 6 0
337 -340 0
339 -341 7 0
340 -342 7 0
339 -342 0
341 -343 8 0
342 -344 8 0
341 -344 0
343 -345 9 0
344 -346 9 0
343 -346 0
345 -347 10 0
346 -348 10 0
345 -348 0
347 -349 11 0
348 -350 11 0
347 -350 0
349 -351 12 0
350 -352 12 0
349 -352 0
351 -353 13 0
352 -354 13 0
351 -354 0
-355 27 0
355 -356 28 0
-357 28 0
355 -357 0
356 -358 29 0
357 -359 29 0
356 -359 0
358 -360 30 0
359 -361 30 0
358 -361 0
360 -362 31 0
361 -363 31 0
360 -363 0
362 -364 32 0
363 -365 32 0
362 -365 0
364 -366 33 0
365 -367 33 0
364 -367 0
366 -368 34 0
367 -369 34 0
366 -369 0
368 -370 35 0
369 -371 35 0
368 -371 0
370 -372 36 0
371 -373 36 0
370 -373 0
372 -374 37 0
373 -375 37 0
372 -375 0
374 -376 38 0
375 -377 38 0
374 -377 0
376 -378 39 0
377 -379 39 0
376 -379 0
-380 53 0
380 -381 54 0
-382 54 0
380 -382 0
381 -383 55 0
382 -384 55 0
381 -384 0
383 -385 56 0
384 -386 56 0
383 -386 0
385 -387 57 0
386 -388 57 0
385 -388 0
387 -389 58 0
388 -390 58 0
387 -390 0
389 -391 59 0
390 -392 59 0
389 -392 0
391 -393 60 0
392 -394 60 0
391 -394 0
393 -395 61 0
394 -396 61 0
393 -396 0
395 -397 62 0
396 -398 62 0
395 -398 0
397 -399 63 0
398 -400 63 0
397 -400 0
399 -401 64 0
400 -402 64 0
399 -402 0
401 -403 65 0
402 -404 65 0
401 -404 0
-405 79 0
405 -406 80 0
-407 80 0
405 -407 0
406 -408 81 0
407 -409 81 0
406 -409 0
408 -410 82 0
409 -411 82 0
408 -411 0
410 -412 83 0
411 -413 83 0
410 -413 0
412 -414 84 0
413 -415 84 0
412 -415 0
414 -416 85 0
415 -417 85 0
414 -417 0
416 -418 86 0
417 -419 86 0
416 -419 0
418 -420 87 0
419 -421 87 0
418 -421 0
420 -422 88 0
421 -423 88 0
420 -423 0
422 -424 89 0
423 -425 89 0
422 -425 0
424 -426 90 0
425 -427 90 0
424 -427 0
426 -428 91 0
427 -429 91 0
426 -429 0
-430 105 0
430 -431 106 0
-432 106 0
430 -432 0
431 -433 107 0
432 -434 107 0
431 -434 0
433 -435 108 0
434 -436 108 0
433 -436 0
435 -437 109 0
436 -438 109 0
435 -438 0
437 -439 110 0
438 -440 110 0
437 -440 0
439 -441 111 0
440 -442 111 0
439 -442 0
441 -443 112 0
442 -444 112 0
441 -444 0
443 -445 113 0
444 -446 113 0
443 -446 0
445 -447 114 0
446 -448 114 0
445 -448 0
447 -449 115 0
448 -450 115 0
447 -450 0
449 -451 116 0
450 -452 116 0
449 -452 0
451 -453 117 0
452 -454 117 0
451 -454 0
-455 131 0
455 -456 132 0
-457 132 0
455 -457 0
456 -458 133 0
457 -459 133 0
456 -459 0
458 -460 134 0
459 -461 134 0
458 -461 0
460 -462 135 0
461 -463 135 0
460 -463 0
462 -464 136 0
463 -465 136 0
462 -465 0
464 -466 137 0
465 -467 137 0
464 -467 0
466 -468 138 0
467 -469 138 0
466 -469 0
468 -470 139 0
469 -471 139 0
468 -471 0
470 -472 140 0
471 -473 140 0
470 -473 0
472 -474 141 0
473 -475 141 0
472 -475 0
474 -476 142 0
475 -477 142 0
474 -477 0
476 -478 143 0
477 -479 143 0
476 -479 0
-1 -166 0
14 -27 -166 0
40 -53 -166 0
66 -79 -166 0
92 -105 -166 0
118 -131 -166 0
-2 -167 0
15 -28 -167 0
41 -54 -167 0
67 -80 -167 0
93 -106 -167 0
119 -132 -167 0
-3 -168 0
16 -29 -168 0
42 -55 -168 0
68 -81 -168 0
94 -107 -168 0
120 -133 -168 0
-4 -169 0
17 -30 -169 0
43 -56 -169 0
69 -82 -169 0
95 -108 -169 0
121 -134 -169 0
-5 -170 0
18 -31 -170 0
44 -57 -170 0
70 -83 -170 0
96 -109 -170 0
122 -135 -170 0
-6 -171 0
19 -32 -171 0
45 -58 -171 0
71 -84 -171 0
97 -110 -171 0
123 -136 -171 0
-7 -172 0
20 -33 -172 0
46 -59 -172 0
72 -85 -172 0
98 -111 -172 0
124 -137 -172 0
-8 -173 0
21 -34 -173 0
47 -60 -173 0
73 -86 -173 0
99 -112 -173 0
125 -138 -173 0
-9 -174 0
22 -35 -174 0
48 -61 -174 0
74 -87 -174 0
100 -113 -174 0
126 -139 -174 0
-10 -175 0
23 -36 -175 0
49 -62 -175 0
75 -88 -175 0
101 -114 -175 0
127 -140 -175 0
-11 -176 0
24 -37 -176 0
50 -63 -176 0
76 -89 -176 0
102 -115 -176 0
128 -141 -176 0
-12 -177 0
25 -38 -177 0
51 -64 -177 0
77 -90 -177 0
103 -116 -177 0
129 -142 -177 0
-13 -178 0
26 -39 -178 0
52 -65 -178 0
78 -91 -178 0
104 -117 -178 0
130 -143 -178 0
-480 166 0
-480 167 0
-480 168 0
-480 169 0
480 -166 -167 -168 -169 0
-481 166 0
-481 167 0
-481 168 0
-481 169 0
-481 172 0
481 -166 -167 -168 -169 -172 0
-482 166 0
-482 167 0
-482 168 0
-482 169 0
-482 172 0
-482 175 0
-482 177 0
-482 178 0
-482 176 0
-482 174 0
482 -166 -167 -168 -169 -172 -175 -177 -178 -176 -174 0
-483 166 0
-483 167 0
-483 168 0
-483 169 0
-483 172 0
-483 175 0
-483 177 0
-483 178 0
-483 176 0
483 -166 -167 -168 -169 -172 -175 -177 -178 -176 0
-484 166 0
-484 167 0
-484 168 0
-484 169 0
-484 172 0
-484 175 0
-484 177 0
-484 178 0
484 -166 -167 -168 -169 -172 -175 -177 -178 0
-485 166 0
-485 167 0
-485 168 0
-485 169 0
-485 172 0
-485 174 0
485 -166 -167 -168 -169 -172 -174 0
-486 166 0
-486 167 0
-486 168 0
-486 169 0
-486 172 0
-486 176 0
486 -166 -167 -168 -169 -172 -176 0
-487 166 0
-487 167 0
-487 168 0
-487 171 0
-487 172 0
487 -166 -167 -168 -171 -172 0
-488 166 0
-488 167 0
-488 168 0
-488 171 0
-488 172 0
488 -166 -167 -168 -171 -172 0
-489 166 0
-489 167 0
-489 168 0
-489 171 0
-489 172 0
-489 174 0
489 -166 -167 -168 -171 -172 -174 0
-490 166 0
-490 167 0
-490 168 0
-490 171 0
-490 172 0
-490 176 0
490 -166 -167 -168 -171 -172 -176 0
-491 166 0
-491 167 0
-491 168 0
-491 171 0
-491 175 0
-491 177 0
-491 178 0
-491 176 0
491 -166 -167 -168 -171 -175 -177 -178 -176 0
-492 166 0
-492 167 0
-492 168 0
-492 171 0
-492 175 0
-492 177 0
-492 178 0
-492 176 0
-492 174 0
492 -166 -167 -168 -171 -175 -177 -178 -176 -174 0
-493 166 0
-493 167 0
-493 168 0
-493 171 0
-493 175 0
-493 177 0
-493 178 0
-493 176 0
493 -166 -167 -168 -171 -175 -177 -178 -176 0
-494 166 0
-494 167 0
-494 168 0
-494 171 0
-494 175 0
-494 177 0
-494 178 0
494 -166 -167 -168 -171 -175 -177 -178 0
-495 166 0
-495 167 0
-495 168 0
-495 171 0
495 -166 -167 -168 -171 0
-496 166 0
-496 167 0
-496 168 0
-496 171 0
-496 174 0
496 -166 -167 -168 -171 -174 0
-497 166 0
-497 167 0
-497 168 0
-497 171 0
-497 176 0
497 -166 -167 -168 -171 -176 0
-498 166 0
-498 167 0
-498 168 0
-498 171 0
-498 175 0
-498 177 0
-498 178 0
-498 176 0
-498 174 0
498 -166 -167 -168 -171 -175 -177 -178 -176 -174 0
-499 166 0
-499 167 0
-499 168 0
-499 171 0
-499 175 0
-499 177 0
-499 178 0
-499 176 0
499 -166 -167 -168 -171 -175 -177 -178 -176 0
-500 166 0
-500 167 0
-500 168 0
-500 171 0
-500 175 0
-500 177 0
-500 178 0
500 -166 -167 -168 -171 -175 -177 -178 0
-501 170 0
-501 167 0
-501 168 0
-501 169 0
501 -170 -167 -168 -169 0
-502 170 0
-502 167 0
-502 168 0
-502 169 0
-502 172 0
502 -170 -167 -168 -169 -172 0
-503 170 0
-503 167 0
-503 168 0
-503 169 0
-503 172 0
-503 175 0
-503 177 0
-503 178 0
-503 176 0
-503 174 0
503 -170 -167 -168 -169 -172 -175 -177 -178 -176 -174 0
-504 170 0
-504 167 0
-504 168 0
-504 169 0
-504 172 0
-504 175 0
-504 177 0
-504 178 0
-504 176 0
504 -170 -167 -168 -169 -172 -175 -177 -178 -176 0
-505 170 0
-505 167 0
-505 168 0
-505 169 0
-505 172 0
-505 175 0
-505 177 0
-505 178 0
505 -170 -167 -168 -169 -172 -175 -177 -178 0
-506 170 0
-506 167 0
-506 168 0
-506 169 0
-506 172 0
-506 174 0
506 -170 -167 -168 -169 -172 -174 0
-507 170 0
-507 167 0
-507 168 0
-507 169 0
-507 172 0
-507 176 0
507 -170 -167 -168 -169 -172 -176 0
-508 170 0
-508 167 0
-508 168 0
-508 171 0
-508 172 0
508 -170 -167 -168 -171 -172 0
-509 170 0
-509 167 0
-509 168 0
-509 171 0
-509 172 0
509 -170 -167 -168 -171 -172 0
-510 170 0
-510 167 0
-510 168 0
-510 171 0
-510 172 0
-510 174 0
510 -170 -167 -168 -171 -172 -174 0
-511 170 0
-511 167 0
-511 168 0
-511 171 0
-511 172 0
-511 176 0
511 -170 -167 -168 -171 -172 -176 0
-512 170 0
-512 167 0
-512 168 0
-512 171 0
-512 175 0
-512 177 0
-512 178 0
-512 176 0
512 -170 -167 -168 -171 -175 -177 -178 -176 0
-513 170 0
-513 167 0
-513 168 0
-513 171 0
-513 175 0
-513 177 0
-513 178 0
-513 176 0
-513 174 0
513 -170 -167 -168 -171 -175 -177 -178 -176 -174 0
-514 170 0
-514 167 0
-514 168 0
-514 171 0
-514 175 0
-514 177 0
-514 178 0
-514 176 0
514 -170 -167 -168 -171 -175 -177 -178 -176 0
-515 170 0
-515 167 0
-515 168 0
-515 171 0
-515 175 0
-515 177 0
-515 178 0
515 -170 -167 -168 -171 -175 -177 -178 0
-516 170 0
-516 167 0
-516 168 0
-516 171 0
516 -170 -167 -168 -171 0
-517 170 0
-517 167 0
-517 168 0
-517 171 0
-517 174 0
517 -170 -167 -168 -171 -174 0
-518 170 0
-518 167 0
-518 168 0
-518 171 0
-518 176 0
518 -170 -167 -168 -171 -176 0
-519 170 0
-519 167 0
-519 168 0
-519 171 0
-519 175 0
-519 177 0
-519 178 0
-519 176 0
-519 174 0
519 -170 -167 -168 -171 -175 -177 -178 -176 -174 0
-520 170 0
-520 167 0
-520 168 0
-520 171 0
-520 175 0
-520 177 0
-520 178 0
-520 176 0
520 -170 -167 -168 -171 -175 -177 -178 -176 0
-521 170 0
-521 167 0
-521 168 0
-521 171 0
-521 175 0
-521 177 0
-521 178 0
521 -170 -167 -168 -171 -175 -177 -178 0
-522 173 0
-522 171 0
-522 169 0
522 -173 -171 -169 0
-523 173 0
-523 171 0
-523 172 0
523 -173 -171 -172 0
-524 173 0
-524 171 0
-524 172 0
524 -173 -171 -172 0
-525 173 0
-525 171 0
-525 172 0
-525 174 0
525 -173 -171 -172 -174 0
-526 173 0
-526 171 0
-526 172 0
-526 176 0
526 -173 -171 -172 -176 0
-527 173 0
-527 172 0
527 -173 -172 0
-528 173 0
-528 172 0
528 -173 -172 0
-529 173 0
529 -173 0
-530 173 0
-530 174 0
530 -173 -174 0
-531 173 0
-531 176 0
531 -173 -176 0
-532 173 0
-532 175 0
-532 177 0
-532 178 0
-532 176 0
-532 172 0
532 -173 -175 -177 -178 -176 -172 0
-533 173 0
-533 175 0
-533 177 0
-533 178 0
-533 176 0
533 -173 -175 -177 -178 -176 0
-534 173 0
-534 175 0
-534 177 0
-534 178 0
-534 176 0
-534 174 0
534 -173 -175 -177 -178 -176 -174 0
-535 173 0
-535 175 0
-535 177 0
-535 178 0
-535 176 0
535 -173 -175 -177 -178 -176 0
-536 173 0
-536 175 0
-536 177 0
-536 178 0
536 -173 -175 -177 -178 0
-537 175 0
-537 171 0
-537 169 0
537 -175 -171 -169 0
-538 175 0
-538 171 0
-538 172 0
538 -175 -171 -172 0
-539 175 0
-539 171 0
-539 172 0
539 -175 -171 -172 0
-540 175 0
-540 171 0
-540 172 0
-540 174 0
540 -175 -171 -172 -174 0
-541 175 0
-541 171 0
-541 172 0
-541 176 0
541 -175 -171 -172 -176 0
-542 175 0
-542 171 0
-542 169 0
542 -175 -171 -169 0
-543 175 0
-543 172 0
543 -175 -172 0
-544 175 0
-544 172 0
544 -175 -172 0
-545 175 0
545 -175 0
-546 175 0
-546 174 0
546 -175 -174 0
-547 175 0
-547 176 0
547 -175 -176 0
-548 177 0
-548 178 0
-548 176 0
-548 172 0
548 -177 -178 -176 -172 0
-549 177 0
-549 178 0
-549 176 0
549 -177 -178 -176 0
-550 177 0
-550 178 0
-550 176 0
-550 171 0
-550 169 0
550 -177 -178 -176 -171 -169 0
-551 177 0
-551 178 0
-551 176 0
-551 174 0
551 -177 -178 -176 -174 0
-552 177 0
-552 178 0
-552 176 0
552 -177 -178 -176 0
-553 177 0
-553 178 0
553 -177 -178 0
-554 480 481 482 483 484 485 486 487 488 489 490 491 492 493 494 495 496 497 498 499 500 501 502 503 504 505 506 507 508 509 510 511 512 513 514 515 516 517 518 519 520 521 522 523 524 525 526 527 528 529 530 531 532 533 534 535 536 537 538 539 540 541 542 543 544 545 546 547 548 549 550 551 552 553 0
-354 -204 0
-379 -204 0
-404 -204 0
-429 -204 0
-454 -204 0
-479 -204 0
204 354 379 404 429 454 479 0
554 -204 0
